language Essence 1.3

letting class be function(1 --> 1, 2 --> 4, 3 --> 2, 4 --> 1, 5 --> 1, 6 --> 3, 7 --> 1, 8 --> 5)
letting deck_length be 27
letting deck_width be 50
letting length be function(1 --> 5, 2 --> 26, 3 --> 10, 4 --> 25, 5 --> 12, 6 --> 7, 7 --> 12, 8 --> 23)
letting n_classes be 5
letting n_containers be 8
letting separation be function({1, 3} --> 7, {1, 5} --> 2)
letting width be function(1 --> 1, 2 --> 16, 3 --> 1, 4 --> 21, 5 --> 8, 6 --> 5, 7 --> 2, 8 --> 3)
